% seed = 0

mint = 30;
% maxt = 86;

nActs = 32;
dur = [0,4,2,5,3,4,3,3,2,2,3,2,3,4,2,4,2,1,4,2,2,3,1,1,3,2,5,3,3,7,1,0];

nSkills = 12;
sreq = [| 0,0,0,0,0,0,0,0,0,0,0,0,
	| 0,1,0,0,0,0,0,0,0,0,0,1,
	| 1,0,0,0,0,0,0,0,0,0,0,1,
	| 0,0,0,0,0,0,0,0,0,1,0,0,
	| 0,1,0,0,1,0,0,0,0,0,0,0,
	| 0,0,0,1,0,0,0,0,0,0,1,0,
	| 0,1,0,0,0,0,0,1,0,0,0,0,
	| 0,0,0,0,0,0,0,0,0,1,0,1,
	| 0,0,0,0,0,1,0,0,0,0,1,0,
	| 0,0,1,0,0,0,0,1,0,0,0,0,
	| 0,0,1,0,0,0,0,0,1,0,0,0,
	| 1,0,0,0,0,1,0,0,0,0,0,0,
	| 0,0,0,0,0,0,1,0,0,0,0,0,
	| 0,1,0,0,0,0,0,0,0,0,1,0,
	| 0,1,0,0,0,0,0,0,0,0,1,0,
	| 0,0,0,0,0,0,2,0,0,0,0,0,
	| 1,0,0,0,0,0,0,0,0,0,1,0,
	| 0,0,0,0,0,1,0,0,0,0,1,0,
	| 0,0,0,0,0,0,0,0,0,0,2,0,
	| 0,0,0,0,0,1,1,0,0,0,0,0,
	| 0,0,0,0,0,0,1,1,0,0,0,0,
	| 0,0,1,0,0,0,0,1,0,0,0,0,
	| 1,0,0,0,0,0,0,0,0,0,0,0,
	| 0,0,0,0,0,1,0,0,0,1,0,0,
	| 0,0,0,0,0,0,0,0,1,0,0,0,
	| 0,0,0,0,1,0,0,0,0,0,0,0,
	| 0,0,0,1,0,0,0,0,1,0,0,0,
	| 0,0,0,0,0,1,1,0,0,0,0,0,
	| 0,0,0,0,0,1,0,0,0,0,1,0,
	| 1,0,0,0,1,0,0,0,0,0,0,0,
	| 0,0,1,0,0,1,0,0,0,0,0,0,
	| 0,0,0,0,0,0,0,0,0,0,0,0, |];

% SumOfsreq = 55;

nResources = 4;
mastery = [| true,true,true,true,true,true,false,true,false,false,true,true,
	| true,true,true,true,false,true,true,false,false,true,true,true,
	| true,true,false,false,false,true,true,true,true,true,true,true,
	| true,false,true,false,true,true,true,true,true,true,true,false, |];

nPrecs = 58;
pred = [1,1,1,2,2,2,3,3,4,4,4,5,5,6,7,7,7,8,9,9,9,10,10,11,11,11,12,12,12,13,13,13,14,14,14,15,15,16,17,18,19,19,19,20,20,21,21,22,22,23,24,25,26,27,28,29,30,31];
succ = [2,3,4,9,27,7,9,23,17,5,22,6,23,15,10,11,8,13,28,12,14,20,22,26,20,16,18,31,16,17,19,14,18,29,15,25,31,25,24,22,28,21,24,28,23,26,29,26,24,25,30,30,30,29,31,32,32,32];

nUnrels = 241;
unpred = [2,2,2,2,3,3,3,3,3,3,3,3,3,3,3,3,3,4,4,4,4,4,4,4,4,4,4,4,4,4,4,4,4,5,5,5,5,5,5,5,5,5,5,5,5,5,5,5,5,5,5,5,5,6,6,6,6,6,6,6,6,6,6,6,6,6,6,6,6,6,6,6,6,6,7,7,7,8,8,8,8,8,8,8,8,9,9,9,9,9,9,9,9,9,10,10,10,10,10,10,10,10,10,10,10,10,11,11,11,11,11,11,11,11,11,11,11,11,12,12,12,12,12,12,12,12,12,12,12,13,13,13,13,14,14,14,14,14,14,14,14,15,15,15,15,15,15,15,15,15,15,15,15,15,16,16,16,16,16,16,16,16,16,16,16,16,16,17,17,17,17,17,17,17,17,17,17,17,17,18,18,18,18,18,18,18,18,18,19,19,19,19,19,20,20,20,20,20,20,21,21,21,21,21,21,21,22,22,22,22,22,22,23,23,23,23,23,23,24,24,24,24,24,24,25,25,25,25,25,26,26,26,26,27,27,27,28,28,29,29,30];
unsucc = [3,4,5,6,4,5,6,7,8,10,11,13,17,19,20,21,27,7,8,9,10,11,12,13,14,16,18,19,20,21,27,28,29,7,8,9,10,11,12,13,14,16,17,18,19,20,21,22,24,26,27,28,29,7,8,9,10,11,12,13,14,16,17,18,19,20,21,22,23,24,26,27,28,29,9,12,27,9,10,11,12,16,20,23,27,10,11,13,17,19,20,21,23,27,11,12,13,14,15,16,17,18,19,21,27,29,12,13,14,15,17,18,19,21,22,24,27,29,13,14,15,17,19,20,21,23,27,28,29,16,20,23,27,16,17,19,20,21,23,27,28,16,17,18,19,20,21,22,23,24,26,27,28,29,17,18,19,20,21,22,23,24,26,27,28,29,31,18,19,20,21,22,23,25,26,27,28,29,31,19,20,21,23,25,27,28,29,31,20,22,23,25,27,21,22,24,26,27,29,22,23,24,25,27,28,31,23,25,27,28,29,31,24,26,27,28,29,31,25,26,27,28,29,31,26,27,28,29,31,27,28,29,31,28,30,31,29,30,30,31,31];

USEFUL_RES = [{},
	{1,2,3},
	{1,2,3,4},
	{2,3,4},
	{1,2,3,4},
	{1,2,3,4},
	{1,2,3,4},
	{1,2,3,4},
	{1,2,3,4},
	{1,2,3,4},
	{1,2,3,4},
	{1,2,3,4},
	{2,3,4},
	{1,2,3,4},
	{1,2,3,4},
	{2,3,4},
	{1,2,3,4},
	{1,2,3,4},
	{1,2,3,4},
	{1,2,3,4},
	{1,2,3,4},
	{1,2,3,4},
	{1,2,3,4},
	{1,2,3,4},
	{3,4},
	{1,4},
	{1,2,3,4},
	{1,2,3,4},
	{1,2,3,4},
	{1,2,3,4},
	{1,2,3,4},
	{}];

POTENTIAL_ACT = [{2,3,5,6,7,8,9,10,11,12,14,15,17,18,19,20,21,22,23,24,26,27,28,29,30,31},
	{2,3,4,5,6,7,8,9,10,11,12,13,14,15,16,17,18,19,20,21,22,23,24,27,28,29,30,31},
	{2,3,4,5,6,7,8,9,10,11,12,13,14,15,16,17,18,19,20,21,22,23,24,25,27,28,29,30,31},
	{3,4,5,6,7,8,9,10,11,12,13,14,15,16,17,18,19,20,21,22,23,24,25,26,27,28,29,30,31}];
